true true true
feasible solution found by trivial heuristic after 0.0 seconds, objective value 7.600000e+01
presolving:
presolving (0 rounds: 0 fast, 0 medium, 0 exhaustive):
 0 deleted vars, 0 deleted constraints, 0 added constraints, 0 tightened bounds, 0 added holes, 0 changed sides, 0 changed coefficients
 0 implications, 0 cliques
presolved problem has 76 variables (76 bin, 0 int, 0 impl, 0 cont) and 65 constraints
     65 constraints of type <linear>
transformed objective value is always integral (scale: 1)
Presolving Time: 0.00
transformed 1/1 original solutions to the transformed problem space

 time | node  | left  |LP iter|LP it/n|mem/heur|mdpt |vars |cons |rows |cuts |sepa|confs|strbr|  dualbound   | primalbound  |  gap   | compl. 
p 0.0s|     1 |     0 |     0 |     - |   locks|   0 |  76 |  65 |  65 |   0 |  0 |   0 |   0 |      --      | 1.100000e+01 |    Inf | unknown
 time | node  | left  |LP iter|LP it/n|mem/heur|mdpt |vars |cons |rows |cuts |sepa|confs|strbr|  dualbound   | primalbound  |  gap   | compl. 
  0.0s|     1 |     0 |    50 |     - |  2840k |   0 | 734 |  65 |  65 |   0 |  0 |   0 |   0 | 1.000000e+00 | 1.100000e+01 |1000.00%| unknown
 time | node  | left  |LP iter|LP it/n|mem/heur|mdpt |vars |cons |rows |cuts |sepa|confs|strbr|  dualbound   | primalbound  |  gap   | compl. 
  1.6s|     1 |     0 |  1164 |     - |    14M |   0 |4373 |  65 |  65 |   0 |  0 |   0 |   0 | 9.000000e+00 | 1.100000e+01 |  22.22%| unknown
 time | node  | left  |LP iter|LP it/n|mem/heur|mdpt |vars |cons |rows |cuts |sepa|confs|strbr|  dualbound   | primalbound  |  gap   | compl. 
L 1.8s|     1 |     0 |  1683 |     - |    rens|   0 |4373 |  65 |  65 |   0 |  1 |   0 |   0 | 9.000000e+00 | 1.000000e+01 |  11.11%| unknown
 time | node  | left  |LP iter|LP it/n|mem/heur|mdpt |vars |cons |rows |cuts |sepa|confs|strbr|  dualbound   | primalbound  |  gap   | compl. 
  1.8s|     1 |     0 |  1683 |     - |    15M |   0 |4373 |  65 |  65 |   0 |  1 |   0 |   0 | 9.000000e+00 | 1.000000e+01 |  11.11%| unknown
 time | node  | left  |LP iter|LP it/n|mem/heur|mdpt |vars |cons |rows |cuts |sepa|confs|strbr|  dualbound   | primalbound  |  gap   | compl. 
  1.9s|     1 |     2 |  1683 |     - |    15M |   0 |4373 |  65 |  65 |   0 |  2 |   0 |   0 | 9.000000e+00 | 1.000000e+01 |  11.11%| unknown
 time | node  | left  |LP iter|LP it/n|mem/heur|mdpt |vars |cons |rows |cuts |sepa|confs|strbr|  dualbound   | primalbound  |  gap   | compl. 
  2.0s|     2 |     3 |  1698 |  15.0 |    17M |   1 |4373 |  65 |  65 |   0 |  1 |   0 |   0 | 9.000000e+00 | 1.000000e+01 |  11.11%| unknown
 time | node  | left  |LP iter|LP it/n|mem/heur|mdpt |vars |cons |rows |cuts |sepa|confs|strbr|  dualbound   | primalbound  |  gap   | compl. 
  2.2s|     3 |     4 |  1744 |  30.5 |    18M |   1 |4373 |  65 |  65 |   0 |  1 |   0 |   0 | 9.000000e+00 | 1.000000e+01 |  11.11%| unknown
 time | node  | left  |LP iter|LP it/n|mem/heur|mdpt |vars |cons |rows |cuts |sepa|confs|strbr|  dualbound   | primalbound  |  gap   | compl. 
  2.4s|     4 |     5 |  1764 |  27.0 |    18M |   2 |4373 |  65 |  65 |   0 |  1 |   0 |   0 | 9.000000e+00 | 1.000000e+01 |  11.11%| unknown
 time | node  | left  |LP iter|LP it/n|mem/heur|mdpt |vars |cons |rows |cuts |sepa|confs|strbr|  dualbound   | primalbound  |  gap   | compl. 
  2.7s|     5 |     6 |  1947 |  66.0 |    18M |   3 |4469 |  65 |  65 |   0 |  1 |   0 |   0 | 9.000000e+00 | 1.000000e+01 |  11.11%| unknown
 time | node  | left  |LP iter|LP it/n|mem/heur|mdpt |vars |cons |rows |cuts |sepa|confs|strbr|  dualbound   | primalbound  |  gap   | compl. 
  3.1s|     6 |     7 |  1967 |  56.8 |    18M |   3 |4469 |  65 |  65 |   0 |  1 |   0 |   0 | 9.000000e+00 | 1.000000e+01 |  11.11%| unknown
 time | node  | left  |LP iter|LP it/n|mem/heur|mdpt |vars |cons |rows |cuts |sepa|confs|strbr|  dualbound   | primalbound  |  gap   | compl. 
  3.4s|     7 |     8 |  1982 |  49.8 |    18M |   4 |4469 |  65 |  65 |   0 |  1 |   0 |   0 | 9.000000e+00 | 1.000000e+01 |  11.11%| unknown
 time | node  | left  |LP iter|LP it/n|mem/heur|mdpt |vars |cons |rows |cuts |sepa|confs|strbr|  dualbound   | primalbound  |  gap   | compl. 
  5.6s|     8 |     7 |  2102 |  59.9 |    19M |   5 |4656 |  65 |  65 |   0 |  0 |   0 |   0 | 9.000000e+00 | 1.000000e+01 |  11.11%| unknown
 time | node  | left  |LP iter|LP it/n|mem/heur|mdpt |vars |cons |rows |cuts |sepa|confs|strbr|  dualbound   | primalbound  |  gap   | compl. 
  6.2s|     9 |     8 |  2190 |  63.4 |    19M |   5 |4683 |  65 |  65 |   0 |  1 |   0 |   0 | 9.000000e+00 | 1.000000e+01 |  11.11%|   1.15%
 time | node  | left  |LP iter|LP it/n|mem/heur|mdpt |vars |cons |rows |cuts |sepa|confs|strbr|  dualbound   | primalbound  |  gap   | compl. 
  7.3s|    10 |     7 |  2351 |  74.2 |    19M |   6 |4770 |  65 |  65 |   0 |  0 |   0 |   0 | 9.000000e+00 | 1.000000e+01 |  11.11%|   1.15%
 time | node  | left  |LP iter|LP it/n|mem/heur|mdpt |vars |cons |rows |cuts |sepa|confs|strbr|  dualbound   | primalbound  |  gap   | compl. 
  8.2s|    11 |     8 |  2429 |  74.6 |    21M |   6 |4860 |  65 |  65 |   0 |  1 |   0 |   0 | 9.000000e+00 | 1.000000e+01 |  11.11%|   1.72%
 time | node  | left  |LP iter|LP it/n|mem/heur|mdpt |vars |cons |rows |cuts |sepa|confs|strbr|  dualbound   | primalbound  |  gap   | compl. 
  8.8s|    12 |     9 |  2452 |  69.9 |    21M |   7 |4860 |  65 |  65 |   0 |  1 |   0 |   0 | 9.000000e+00 | 1.000000e+01 |  11.11%|   1.72%
 time | node  | left  |LP iter|LP it/n|mem/heur|mdpt |vars |cons |rows |cuts |sepa|confs|strbr|  dualbound   | primalbound  |  gap   | compl. 
  9.4s|    13 |     8 |  2470 |  65.6 |    21M |   7 |4860 |  65 |  65 |   0 |  0 |   0 |   0 | 9.000000e+00 | 1.000000e+01 |  11.11%|   1.72%
 time | node  | left  |LP iter|LP it/n|mem/heur|mdpt |vars |cons |rows |cuts |sepa|confs|strbr|  dualbound   | primalbound  |  gap   | compl. 
 10.4s|    14 |     7 |  2575 |  68.6 |    21M |   8 |4922 |  65 |  65 |   0 |  0 |   0 |   0 | 9.000000e+00 | 1.000000e+01 |  11.11%|   2.01%
 time | node  | left  |LP iter|LP it/n|mem/heur|mdpt |vars |cons |rows |cuts |sepa|confs|strbr|  dualbound   | primalbound  |  gap   | compl. 
 11.1s|    15 |     8 |  2592 |  64.9 |    21M |   8 |4922 |  65 |  65 |   0 |  1 |   0 |   0 | 9.000000e+00 | 1.000000e+01 |  11.11%|   2.15%
 time | node  | left  |LP iter|LP it/n|mem/heur|mdpt |vars |cons |rows |cuts |sepa|confs|strbr|  dualbound   | primalbound  |  gap   | compl. 
 11.9s|    16 |     7 |  2778 |  73.0 |    21M |   9 |4985 |  65 |  65 |   0 |  0 |   0 |   0 | 9.000000e+00 | 1.000000e+01 |  11.11%|   2.15%
 time | node  | left  |LP iter|LP it/n|mem/heur|mdpt |vars |cons |rows |cuts |sepa|confs|strbr|  dualbound   | primalbound  |  gap   | compl. 
 12.7s|    17 |     8 |  2804 |  70.1 |    21M |   9 |4985 |  65 |  65 |   0 |  1 |   0 |   0 | 9.000000e+00 | 1.000000e+01 |  11.11%|   2.22%
 time | node  | left  |LP iter|LP it/n|mem/heur|mdpt |vars |cons |rows |cuts |sepa|confs|strbr|  dualbound   | primalbound  |  gap   | compl. 
 13.7s|    18 |     9 |  2865 |  69.5 |    21M |  10 |5013 |  65 |  65 |   0 |  1 |   0 |   0 | 9.000000e+00 | 1.000000e+01 |  11.11%|   2.22%
 time | node  | left  |LP iter|LP it/n|mem/heur|mdpt |vars |cons |rows |cuts |sepa|confs|strbr|  dualbound   | primalbound  |  gap   | compl. 
 14.7s|    19 |     8 |  2880 |  66.5 |    21M |  11 |5014 |  65 |  65 |   0 |  0 |   0 |   0 | 9.000000e+00 | 1.000000e+01 |  11.11%|   2.22%
 time | node  | left  |LP iter|LP it/n|mem/heur|mdpt |vars |cons |rows |cuts |sepa|confs|strbr|  dualbound   | primalbound  |  gap   | compl. 
 15.5s|    20 |     7 |  2932 |  65.7 |    21M |  11 |5014 |  65 |  65 |   0 |  0 |   0 |   0 | 9.000000e+00 | 1.000000e+01 |  11.11%|   2.24%
 time | node  | left  |LP iter|LP it/n|mem/heur|mdpt |vars |cons |rows |cuts |sepa|confs|strbr|  dualbound   | primalbound  |  gap   | compl. 
 15.8s|    21 |     8 |  3064 |  69.0 |    21M |  11 |5014 |  65 |  65 |   0 |  1 |   0 |   0 | 9.000000e+00 | 1.000000e+01 |  11.11%|   2.26%
 time | node  | left  |LP iter|LP it/n|mem/heur|mdpt |vars |cons |rows |cuts |sepa|confs|strbr|  dualbound   | primalbound  |  gap   | compl. 
 16.0s|    22 |     9 |  3134 |  69.1 |    22M |  11 |5014 |  65 |  65 |   0 |  1 |   0 |   0 | 9.000000e+00 | 1.000000e+01 |  11.11%|   2.26%
 time | node  | left  |LP iter|LP it/n|mem/heur|mdpt |vars |cons |rows |cuts |sepa|confs|strbr|  dualbound   | primalbound  |  gap   | compl. 
 16.4s|    23 |    10 |  3520 |  83.5 |    23M |  11 |5014 |  65 |  65 |   0 |  1 |   0 |   0 | 9.000000e+00 | 1.000000e+01 |  11.11%|   2.26%
 time | node  | left  |LP iter|LP it/n|mem/heur|mdpt |vars |cons |rows |cuts |sepa|confs|strbr|  dualbound   | primalbound  |  gap   | compl. 
 16.7s|    24 |    11 |  3552 |  81.3 |    23M |  11 |5014 |  65 |  65 |   0 |  1 |   0 |   0 | 9.000000e+00 | 1.000000e+01 |  11.11%|   2.26%
 time | node  | left  |LP iter|LP it/n|mem/heur|mdpt |vars |cons |rows |cuts |sepa|confs|strbr|  dualbound   | primalbound  |  gap   | compl. 
 17.1s|    25 |    12 |  3570 |  78.6 |    23M |  11 |5014 |  65 |  65 |   0 |  1 |   0 |   0 | 9.000000e+00 | 1.000000e+01 |  11.11%|   2.26%
 time | node  | left  |LP iter|LP it/n|mem/heur|mdpt |vars |cons |rows |cuts |sepa|confs|strbr|  dualbound   | primalbound  |  gap   | compl. 
 17.5s|    26 |    13 |  3643 |  78.4 |    24M |  11 |5014 |  65 |  65 |   0 |  1 |   0 |   0 | 9.000000e+00 | 1.000000e+01 |  11.11%|   2.26%
 time | node  | left  |LP iter|LP it/n|mem/heur|mdpt |vars |cons |rows |cuts |sepa|confs|strbr|  dualbound   | primalbound  |  gap   | compl. 
 19.3s|    27 |    12 |  3998 |  89.0 |    25M |  11 |5580 |  65 |  65 |   0 |  0 |   0 |   0 | 9.000000e+00 | 1.000000e+01 |  11.11%|   2.26%
 time | node  | left  |LP iter|LP it/n|mem/heur|mdpt |vars |cons |rows |cuts |sepa|confs|strbr|  dualbound   | primalbound  |  gap   | compl. 
 19.9s|    28 |    13 |  4063 |  88.1 |    26M |  11 |5580 |  65 |  65 |   0 |  1 |   0 |   0 | 9.000000e+00 | 1.000000e+01 |  11.11%|   2.83%
 time | node  | left  |LP iter|LP it/n|mem/heur|mdpt |vars |cons |rows |cuts |sepa|confs|strbr|  dualbound   | primalbound  |  gap   | compl. 
 21.0s|    29 |    12 |  4203 |  90.0 |    26M |  11 |5630 |  65 |  65 |   0 |  0 |   0 |   0 | 9.000000e+00 | 1.000000e+01 |  11.11%|   2.83%
 time | node  | left  |LP iter|LP it/n|mem/heur|mdpt |vars |cons |rows |cuts |sepa|confs|strbr|  dualbound   | primalbound  |  gap   | compl. 
 21.6s|    30 |    13 |  4243 |  88.3 |    26M |  11 |5630 |  65 |  65 |   0 |  1 |   0 |   0 | 9.000000e+00 | 1.000000e+01 |  11.11%|   3.12%
 time | node  | left  |LP iter|LP it/n|mem/heur|mdpt |vars |cons |rows |cuts |sepa|confs|strbr|  dualbound   | primalbound  |  gap   | compl. 
 22.3s|    31 |    14 |  4244 |  85.4 |    27M |  11 |5630 |  65 |  65 |   0 |  1 |   0 |   0 | 9.000000e+00 | 1.000000e+01 |  11.11%|   3.12%
 time | node  | left  |LP iter|LP it/n|mem/heur|mdpt |vars |cons |rows |cuts |sepa|confs|strbr|  dualbound   | primalbound  |  gap   | compl. 
 23.4s|    32 |    13 |  4365 |  86.5 |    27M |  11 |5662 |  65 |  65 |   0 |  0 |   0 |   0 | 9.000000e+00 | 1.000000e+01 |  11.11%|   3.12%
 time | node  | left  |LP iter|LP it/n|mem/heur|mdpt |vars |cons |rows |cuts |sepa|confs|strbr|  dualbound   | primalbound  |  gap   | compl. 
 24.1s|    33 |    14 |  4385 |  84.4 |    28M |  11 |5662 |  65 |  65 |   0 |  1 |   0 |   0 | 9.000000e+00 | 1.000000e+01 |  11.11%|   3.19%
 time | node  | left  |LP iter|LP it/n|mem/heur|mdpt |vars |cons |rows |cuts |sepa|confs|strbr|  dualbound   | primalbound  |  gap   | compl. 
 25.2s|    34 |    13 |  4574 |  87.6 |    28M |  11 |5701 |  65 |  65 |   0 |  0 |   0 |   0 | 9.000000e+00 | 1.000000e+01 |  11.11%|   3.19%
 time | node  | left  |LP iter|LP it/n|mem/heur|mdpt |vars |cons |rows |cuts |sepa|confs|strbr|  dualbound   | primalbound  |  gap   | compl. 
 26.4s|    35 |    12 |  4652 |  87.3 |    28M |  11 |5722 |  65 |  65 |   0 |  0 |   0 |   0 | 9.000000e+00 | 1.000000e+01 |  11.11%|   3.22%
 time | node  | left  |LP iter|LP it/n|mem/heur|mdpt |vars |cons |rows |cuts |sepa|confs|strbr|  dualbound   | primalbound  |  gap   | compl. 
 27.2s|    36 |    13 |  4671 |  85.4 |    29M |  11 |5722 |  65 |  65 |   0 |  1 |   0 |   0 | 9.000000e+00 | 1.000000e+01 |  11.11%|   3.37%
 time | node  | left  |LP iter|LP it/n|mem/heur|mdpt |vars |cons |rows |cuts |sepa|confs|strbr|  dualbound   | primalbound  |  gap   | compl. 
 28.5s|    37 |    12 |  4753 |  85.3 |    29M |  11 |5749 |  65 |  65 |   0 |  0 |   0 |   0 | 9.000000e+00 | 1.000000e+01 |  11.11%|   3.37%
 time | node  | left  |LP iter|LP it/n|mem/heur|mdpt |vars |cons |rows |cuts |sepa|confs|strbr|  dualbound   | primalbound  |  gap   | compl. 
 29.4s|    38 |    13 |  4778 |  83.6 |    29M |  11 |5749 |  65 |  65 |   0 |  1 |   0 |   0 | 9.000000e+00 | 1.000000e+01 |  11.11%|   3.38%
 time | node  | left  |LP iter|LP it/n|mem/heur|mdpt |vars |cons |rows |cuts |sepa|confs|strbr|  dualbound   | primalbound  |  gap   | compl. 
 30.5s|    39 |    12 |  4942 |  85.8 |    29M |  12 |5873 |  65 |  65 |   0 |  0 |   0 |   0 | 9.000000e+00 | 1.000000e+01 |  11.11%|   3.38%
 time | node  | left  |LP iter|LP it/n|mem/heur|mdpt |vars |cons |rows |cuts |sepa|confs|strbr|  dualbound   | primalbound  |  gap   | compl. 
r31.4s|    40 |     0 |  5042 |  86.1 |simplero|  12 |5873 |  65 |  65 |   0 |  0 |   0 |   0 | 9.000000e+00 | 9.000000e+00 |   0.00%|  99.99%

SCIP Status        : problem is solved [optimal solution found]
Solving Time (sec) : 31.45
Solving Nodes      : 40
Primal Bound       : +9.00000000000000e+00 (85 solutions)
Dual Bound         : +9.00000000000000e+00
Gap                : 0.00 %
Running with parallel: True bidir: True symbreak: True
Number of Nodes:  65
47.298680018206646% holds
starting cheapest insertion heuristic
Heuristic without TSP improvement:  11
Heuristic without TSP improvement time:  0.1
Heuristic Sol:  11
Heuristic total time:  0.3
[[14, 22, 9, 50], [24, 29, 18, 23, 56, 43, 31, 44], [26, 4, 10, 35, 12], [47, 37, 54, 20, 61, 45, 17, 46, 6], [48, 5, 38, 1, 39, 3, 28], [53, 11, 30, 42, 34, 16], [64, 63, 33, 52, 2, 51, 41, 0, 8, 49], [62, 55, 58, 21, 7], [60, 40, 25], [59, 36, 15, 27], [57, 19, 32, 13]]
Instance path:  /home/htc/mghannam/SCRATCH/lccp-rust/data/at84_ftv64.npcc
Timelimit:  7200
Heuristic without TSP improvement:  11
Heuristic without TSP improvement time:  0.1
Heuristic Sol:  11
Heuristic total time:  0.8
at 1 zero_duals: 54
at1, LP obj: 11.0 n_added_paths: 658
at 1 zero_duals: 35
at1, LP obj: 11.0 n_added_paths: 289
at 1 zero_duals: 25
at1, LP obj: 11.0 n_added_paths: 653
at 1 zero_duals: 23
at1, LP obj: 10.6 n_added_paths: 614
at 1 zero_duals: 16
at1, LP obj: 10.158389585342334 n_added_paths: 999
at 1 zero_duals: 7
at1, LP obj: 9.937392959086585 n_added_paths: 605
at 1 zero_duals: 9
at1, LP obj: 9.380081300813009 n_added_paths: 226
at 1 zero_duals: 3
at1, LP obj: 9.182926829268293 n_added_paths: 136
at 1 zero_duals: 5
at1, LP obj: 9.030530472328678 n_added_paths: 62
at 1 zero_duals: 4
at1, LP obj: 8.977076932093132 n_added_paths: 18
at 1 zero_duals: 5
at1, LP obj: 8.944799395438308 n_added_paths: 8
at 1 zero_duals: 5
Switching to elementary pricing
at1, LP obj: 8.93785765379113 n_added_paths: 29
updated lowerbound from 1.0 to 9
Gap too small = 0, stopping pricing with lb = 9
Gap too small = 0, stopping pricing with lb = 9
Gap too small = 0, stopping pricing with lb = 9
Gap too small = 0, stopping pricing with lb = 9
Gap too small = 0, stopping pricing with lb = 9
at 8 zero_duals: 13
at8, LP obj: 9.057220708446867 n_added_paths: 15
at 8 zero_duals: 9
at8, LP obj: 9.043956043956046 n_added_paths: 60
at 8 zero_duals: 8
at8, LP obj: 9.007572934412265 n_added_paths: 21
Gap too small = 0, stopping pricing with lb = 9
Gap too small = 0, stopping pricing with lb = 9
Gap too small = 0, stopping pricing with lb = 9
at 14 zero_duals: 10
at14, LP obj: 9.032435882557735 n_added_paths: 58
at 14 zero_duals: 9
Switching to elementary pricing
at14, LP obj: 9.011429408747894 n_added_paths: 119
at 14 zero_duals: 11
Switching to elementary pricing
at14, LP obj: 9.01086956521739 n_added_paths: 4
at 14 zero_duals: 8
Switching to elementary pricing
at14, LP obj: 9.006629597946963 n_added_paths: 5
at 14 zero_duals: 8
Switching to elementary pricing
at14, LP obj: 9.003511641331537 n_added_paths: 1
at 14 zero_duals: 8
Switching to elementary pricing
at14, LP obj: 9.003477846593617 n_added_paths: 0
updated lowerbound from 9.0 to 10
at 15 zero_duals: 13
Switching to elementary pricing
at15, LP obj: 9.02587297867354 n_added_paths: 27
Gap too small = 0, stopping pricing with lb = 9
at 16 zero_duals: 14
at16, LP obj: 9.056824838898653 n_added_paths: 16
at 16 zero_duals: 11
Switching to elementary pricing
at16, LP obj: 9.053100158982511 n_added_paths: 52
at 16 zero_duals: 11
at16, LP obj: 9.033088235294118 n_added_paths: 9
at 16 zero_duals: 9
at16, LP obj: 9.031135135135134 n_added_paths: 3
at 16 zero_duals: 9
Switching to elementary pricing
at16, LP obj: 9.031088805241879 n_added_paths: 5
at 16 zero_duals: 11
Switching to elementary pricing
at16, LP obj: 9.027544351073763 n_added_paths: 2
updated lowerbound from 9.0 to 10
at 17 zero_duals: 11
Switching to elementary pricing
at17, LP obj: 9.011246107651246 n_added_paths: 37
at 17 zero_duals: 9
Switching to elementary pricing
at17, LP obj: 9.008417315620706 n_added_paths: 53
Gap too small = 0, stopping pricing with lb = 9
Gap too small = 0, stopping pricing with lb = 9
at 19 zero_duals: 64
Switching to elementary pricing
at19, LP obj: 1e+20 n_added_paths: 0
updated lowerbound from 9.0 to 100000000000000000000
at 21 zero_duals: 13
Switching to elementary pricing
at21, LP obj: 9.065856777493606 n_added_paths: 57
at 21 zero_duals: 12
Switching to elementary pricing
at21, LP obj: 9.055950428285039 n_added_paths: 5
at 21 zero_duals: 13
Switching to elementary pricing
at21, LP obj: 9.055950428285037 n_added_paths: 0
updated lowerbound from 9.0 to 10
Gap too small = 0, stopping pricing with lb = 9
at 22 zero_duals: 14
at22, LP obj: 9.110651597423917 n_added_paths: 20
at 22 zero_duals: 9
at22, LP obj: 9.076492373580468 n_added_paths: 35
at 22 zero_duals: 13
Switching to elementary pricing
at22, LP obj: 9.05266648978509 n_added_paths: 7
at 22 zero_duals: 12
Switching to elementary pricing
at22, LP obj: 9.052276830491474 n_added_paths: 1
updated lowerbound from 9.0 to 10
Gap too small = 0, stopping pricing with lb = 9
at 24 zero_duals: 12
Switching to elementary pricing
at24, LP obj: 9.00375751503006 n_added_paths: 5
at 24 zero_duals: 10
Switching to elementary pricing
at24, LP obj: 9.002921129503408 n_added_paths: 23
Gap too small = 0, stopping pricing with lb = 9
at 26 zero_duals: 11
Switching to elementary pricing
at26, LP obj: 9.002594033722438 n_added_paths: 1
at 26 zero_duals: 11
Switching to elementary pricing
at26, LP obj: 9.002594033722438 n_added_paths: 0
updated lowerbound from 9.0 to 10
at 27 zero_duals: 64
Switching to elementary pricing
at27, LP obj: 1e+20 n_added_paths: 0
updated lowerbound from 9.0 to 100000000000000000000
Gap too small = 0, stopping pricing with lb = 9
Gap too small = 0, stopping pricing with lb = 9
Gap too small = 0, stopping pricing with lb = 9
Gap too small = 0, stopping pricing with lb = 9
Gap too small = 0, stopping pricing with lb = 9
Gap too small = 0, stopping pricing with lb = 9
at 38 zero_duals: 11
Switching to elementary pricing
at38, LP obj: 9.184109420623944 n_added_paths: 363
at 38 zero_duals: 9
Switching to elementary pricing
at38, LP obj: 9.183810754221055 n_added_paths: 164
at 38 zero_duals: 4
Switching to elementary pricing
at38, LP obj: 9.055112400290065 n_added_paths: 37
at 38 zero_duals: 5
Switching to elementary pricing
at38, LP obj: 9.044825449287337 n_added_paths: 2
updated lowerbound from 9.0 to 10
Gap too small = 0, stopping pricing with lb = 9
at 40 zero_duals: 10
Switching to elementary pricing
at40, LP obj: 9.074841540711848 n_added_paths: 48
at 40 zero_duals: 13
Switching to elementary pricing
at40, LP obj: 9.05462459194777 n_added_paths: 2
updated lowerbound from 9.0 to 10
Gap too small = 0, stopping pricing with lb = 9
Gap too small = 0, stopping pricing with lb = 9
at 44 zero_duals: 10
at44, LP obj: 9.05224321133412 n_added_paths: 20
at 44 zero_duals: 12
Switching to elementary pricing
at44, LP obj: 9.041913214990137 n_added_paths: 12
at 44 zero_duals: 11
Switching to elementary pricing
at44, LP obj: 9.041913214990137 n_added_paths: 0
updated lowerbound from 9.0 to 10
Gap too small = 0, stopping pricing with lb = 9
at 46 zero_duals: 13
at46, LP obj: 9.253006654567454 n_added_paths: 6
at 46 zero_duals: 11
Switching to elementary pricing
at46, LP obj: 9.252518468770987 n_added_paths: 33
at 46 zero_duals: 12
Switching to elementary pricing
at46, LP obj: 9.220459952418715 n_added_paths: 0
updated lowerbound from 9.0 to 10
at 43 zero_duals: 14
Switching to elementary pricing
at43, LP obj: 9.04047619047619 n_added_paths: 17
at 43 zero_duals: 13
Switching to elementary pricing
at43, LP obj: 9.028301886792454 n_added_paths: 1
at 43 zero_duals: 12
Switching to elementary pricing
at43, LP obj: 9.023255813953488 n_added_paths: 3
updated lowerbound from 9.0 to 10
Gap too small = 0, stopping pricing with lb = 9
at 48 zero_duals: 14
Switching to elementary pricing
at48, LP obj: 9.044730574575766 n_added_paths: 16
at 48 zero_duals: 14
Switching to elementary pricing
at48, LP obj: 9.03793559770622 n_added_paths: 11
at 48 zero_duals: 17
Switching to elementary pricing
at48, LP obj: 9.035467128027681 n_added_paths: 0
updated lowerbound from 9.0 to 10
Gap too small = 0, stopping pricing with lb = 9
at 50 zero_duals: 19
Switching to elementary pricing
at50, LP obj: 9.136270491803279 n_added_paths: 20
at 50 zero_duals: 17
Switching to elementary pricing
at50, LP obj: 9.136178861788618 n_added_paths: 87
at 50 zero_duals: 19
Switching to elementary pricing
at50, LP obj: 9.101895734597157 n_added_paths: 4
at 50 zero_duals: 18
Switching to elementary pricing
at50, LP obj: 9.101895734597157 n_added_paths: 10
at 50 zero_duals: 17
Switching to elementary pricing
at50, LP obj: 9.088888888888889 n_added_paths: 3
updated lowerbound from 9.0 to 10
Gap too small = 0, stopping pricing with lb = 9
Best solution found:
t_[47, 37, 54, 20, 61, 45, 17, 46, 6, 47] 1.0 1.0
checking cycle [47, 37, 54, 20, 61, 45, 17, 46, 6, 47]
[47, 37, 54, 20, 61, 45, 17, 46, 6, 47] 245 223
[62, 7, 57, 13, 32, 22, 62] 1.0 1.0000000000000002
checking cycle [62, 7, 57, 13, 32, 22, 62]
[62, 7, 57, 13, 32, 22, 62] 237 237
[26, 12, 10, 23, 4, 26] 1.0 0.9999999999999998
checking cycle [26, 12, 10, 23, 4, 26]
[26, 12, 10, 23, 4, 26] 365 359
[64, 63, 19, 50, 9, 49, 64] 1.0 1.0
checking cycle [64, 63, 19, 50, 9, 49, 64]
[64, 63, 19, 50, 9, 49, 64] 229 227
[60, 25, 31, 44, 24, 29, 18, 60] 1.0 0.9999999999999999
checking cycle [60, 25, 31, 44, 24, 29, 18, 60]
[60, 25, 31, 44, 24, 29, 18, 60] 247 236
[48, 28, 3, 14, 1, 38, 5, 48] 1.0 1.0
checking cycle [48, 28, 3, 14, 1, 38, 5, 48]
[48, 28, 3, 14, 1, 38, 5, 48] 275 266
[58, 21, 36, 55, 15, 53, 34, 16, 58] 1.0 0.9999999999999998
checking cycle [58, 21, 36, 55, 15, 53, 34, 16, 58]
[58, 21, 36, 55, 15, 53, 34, 16, 58] 250 237
[51, 41, 42, 0, 8, 39, 30, 11, 33, 2, 51] 1.0 0.9999999999999999
checking cycle [51, 41, 42, 0, 8, 39, 30, 11, 33, 2, 51]
[51, 41, 42, 0, 8, 39, 30, 11, 33, 2, 51] 265 253
[59, 35, 52, 43, 56, 40, 27, 59] 1.0 0.9999999999999998
checking cycle [59, 35, 52, 43, 56, 40, 27, 59]
[59, 35, 52, 43, 56, 40, 27, 59] 249 249
